words_hard_train/9752.qaiger
aag 146 24 0 1 122
2
4
12
16
24
38
50
58
72
84
92
106
126
134
148
176
184
198
212
220
234
240
242
250
292
6 3 5
8 2 4
10 7 9
14 10 12
18 4 16
20 5 17
22 19 21
26 23 25
28 22 24
30 27 29
32 31 9
34 30 8
36 33 35
40 36 38
42 15 41
44 37 39
46 43 45
48 35 29
52 21 50
54 20 51
56 53 55
60 57 59
62 56 58
64 61 63
66 48 65
68 49 64
70 67 69
74 70 72
76 47 75
78 71 73
80 77 79
82 69 63
86 55 84
88 54 85
90 87 89
94 91 93
96 90 92
98 95 97
100 82 99
102 83 98
104 101 103
108 105 107
110 104 106
112 109 111
114 80 112
116 115 42
118 11 13
120 116 119
122 115 111
124 103 97
128 89 126
130 88 127
132 129 131
136 133 135
138 132 134
140 137 139
142 124 141
144 125 140
146 143 145
150 147 149
152 146 148
154 151 153
156 123 154
158 120 157
160 81 113
162 161 45
164 158 162
166 122 155
168 167 75
170 168 79
172 164 170
174 145 139
178 131 176
180 130 177
182 179 181
186 183 185
188 182 184
190 187 189
192 174 191
194 175 190
196 193 195
200 197 199
202 196 198
204 201 203
206 205 153
208 172 207
210 195 189
214 181 212
216 180 213
218 215 217
222 219 221
224 218 220
226 223 225
228 210 227
230 211 226
232 229 231
236 233 235
238 237 202
244 241 242
246 240 243
248 245 247
252 248 251
254 249 250
256 253 255
258 256 217
260 257 216
262 259 261
264 231 225
266 262 264
268 263 265
270 267 269
272 239 271
274 232 234
276 273 275
278 208 277
280 204 152
282 236 203
284 281 283
286 270 202
288 287 274
290 284 289
292 278 290
i0 2 y1[0]
i1 1 x1[0]
i2 1 x2[0]
i3 1 x1[1]
i4 2 y1[1]
i5 1 x2[1]
i6 1 x1[2]
i7 2 y1[2]
i8 1 x2[2]
i9 1 x1[3]
i10 2 y1[3]
i11 1 x2[3]
i12 1 x1[4]
i13 2 y1[4]
i14 1 x2[4]
i15 1 x1[5]
i16 2 y1[5]
i17 1 x2[5]
i18 1 x1[6]
i19 2 y1[6]
i20 1 x2[6]
i21 2 y1[7]
i22 1 x1[7]
i23 1 x2[7]
o0 bool[0]
c
simplified
  ==
    add
      subtract
        2 y1
        1 x1
      1 x2
    unary minus
      1
