words_hard_train/9752.qaiger.qdimacs
p cnf 146 367
a 121 2 99 36 6 8 42 74 106 19 53 117 88 25 125 63 0
e 1 3 4 5 7 9 10 11 12 13 14 15 16 17 18 20 21 22 23 24 26 27 28 29 30 31 32 33 34 35 37 38 39 40 41 43 44 45 46 47 48 49 50 51 52 54 55 56 57 58 59 60 61 62 64 65 66 67 68 69 70 71 72 73 75 76 77 78 79 80 81 82 83 84 85 86 87 89 90 91 92 93 94 95 96 97 98 100 101 102 103 104 105 107 108 109 110 111 112 113 114 115 116 118 119 120 122 123 124 126 127 128 129 130 131 132 133 134 135 136 137 138 139 140 141 142 143 144 145 146 0
1 2 3 0
-1 -3 0
-2 -3 0
-1 -2 4 0
1 -4 0
2 -4 0
3 4 5 0
-3 -5 0
-4 -5 0
-5 -6 7 0
5 -7 0
6 -7 0
-2 -8 9 0
2 -9 0
8 -9 0
2 8 10 0
-2 -10 0
-8 -10 0
9 10 11 0
-9 -11 0
-10 -11 0
11 12 13 0
-11 -13 0
-12 -13 0
-11 -12 14 0
11 -14 0
12 -14 0
13 14 15 0
-13 -15 0
-14 -15 0
15 4 16 0
-15 -16 0
-4 -16 0
-15 -4 17 0
15 -17 0
4 -17 0
16 17 18 0
-16 -18 0
-17 -18 0
-18 -19 20 0
18 -20 0
19 -20 0
7 20 21 0
-7 -21 0
-20 -21 0
18 19 22 0
-18 -22 0
-19 -22 0
21 22 23 0
-21 -23 0
-22 -23 0
17 14 24 0
-17 -24 0
-14 -24 0
10 -25 26 0
-10 -26 0
25 -26 0
-10 25 27 0
10 -27 0
-25 -27 0
26 27 28 0
-26 -28 0
-27 -28 0
28 29 30 0
-28 -30 0
-29 -30 0
-28 -29 31 0
28 -31 0
29 -31 0
30 31 32 0
-30 -32 0
-31 -32 0
-24 32 33 0
24 -33 0
-32 -33 0
24 -32 34 0
-24 -34 0
32 -34 0
33 34 35 0
-33 -35 0
-34 -35 0
-35 -36 37 0
35 -37 0
36 -37 0
23 37 38 0
-23 -38 0
-37 -38 0
35 36 39 0
-35 -39 0
-36 -39 0
38 39 40 0
-38 -40 0
-39 -40 0
34 31 41 0
-34 -41 0
-31 -41 0
27 -42 43 0
-27 -43 0
42 -43 0
-27 42 44 0
27 -44 0
-42 -44 0
43 44 45 0
-43 -45 0
-44 -45 0
45 46 47 0
-45 -47 0
-46 -47 0
-45 -46 48 0
45 -48 0
46 -48 0
47 48 49 0
-47 -49 0
-48 -49 0
-41 49 50 0
41 -50 0
-49 -50 0
41 -49 51 0
-41 -51 0
49 -51 0
50 51 52 0
-50 -52 0
-51 -52 0
52 53 54 0
-52 -54 0
-53 -54 0
-52 -53 55 0
52 -55 0
53 -55 0
54 55 56 0
-54 -56 0
-55 -56 0
-40 -56 57 0
40 -57 0
56 -57 0
57 -21 58 0
-57 -58 0
21 -58 0
5 6 59 0
-5 -59 0
-6 -59 0
-58 59 60 0
58 -60 0
-59 -60 0
57 55 61 0
-57 -61 0
-55 -61 0
51 48 62 0
-51 -62 0
-48 -62 0
44 -63 64 0
-44 -64 0
63 -64 0
-44 63 65 0
44 -65 0
-63 -65 0
64 65 66 0
-64 -66 0
-65 -66 0
66 67 68 0
-66 -68 0
-67 -68 0
-66 -67 69 0
66 -69 0
67 -69 0
68 69 70 0
-68 -70 0
-69 -70 0
-62 70 71 0
62 -71 0
-70 -71 0
62 -70 72 0
-62 -72 0
70 -72 0
71 72 73 0
-71 -73 0
-72 -73 0
73 74 75 0
-73 -75 0
-74 -75 0
-73 -74 76 0
73 -76 0
74 -76 0
75 76 77 0
-75 -77 0
-76 -77 0
61 -77 78 0
-61 -78 0
77 -78 0
-60 78 79 0
60 -79 0
-78 -79 0
40 56 80 0
-40 -80 0
-56 -80 0
80 22 81 0
-80 -81 0
-22 -81 0
-79 -81 82 0
79 -82 0
81 -82 0
-61 77 83 0
61 -83 0
-77 -83 0
83 37 84 0
-83 -84 0
-37 -84 0
-84 39 85 0
84 -85 0
-39 -85 0
-82 -85 86 0
82 -86 0
85 -86 0
72 69 87 0
-72 -87 0
-69 -87 0
65 -88 89 0
-65 -89 0
88 -89 0
-65 88 90 0
65 -90 0
-88 -90 0
89 90 91 0
-89 -91 0
-90 -91 0
91 92 93 0
-91 -93 0
-92 -93 0
-91 -92 94 0
91 -94 0
92 -94 0
93 94 95 0
-93 -95 0
-94 -95 0
-87 95 96 0
87 -96 0
-95 -96 0
87 -95 97 0
-87 -97 0
95 -97 0
96 97 98 0
-96 -98 0
-97 -98 0
98 99 100 0
-98 -100 0
-99 -100 0
-98 -99 101 0
98 -101 0
99 -101 0
100 101 102 0
-100 -102 0
-101 -102 0
102 76 103 0
-102 -103 0
-76 -103 0
-86 103 104 0
86 -104 0
-103 -104 0
97 94 105 0
-97 -105 0
-94 -105 0
90 -106 107 0
-90 -107 0
106 -107 0
-90 106 108 0
90 -108 0
-106 -108 0
107 108 109 0
-107 -109 0
-108 -109 0
109 110 111 0
-109 -111 0
-110 -111 0
-109 -110 112 0
109 -112 0
110 -112 0
111 112 113 0
-111 -113 0
-112 -113 0
-105 113 114 0
105 -114 0
-113 -114 0
105 -113 115 0
-105 -115 0
113 -115 0
114 115 116 0
-114 -116 0
-115 -116 0
116 117 118 0
-116 -118 0
-117 -118 0
118 -101 119 0
-118 -119 0
101 -119 0
120 -121 122 0
-120 -122 0
121 -122 0
-120 121 123 0
120 -123 0
-121 -123 0
122 123 124 0
-122 -124 0
-123 -124 0
-124 125 126 0
124 -126 0
-125 -126 0
124 -125 127 0
-124 -127 0
125 -127 0
126 127 128 0
-126 -128 0
-127 -128 0
-128 108 129 0
128 -129 0
-108 -129 0
128 -108 130 0
-128 -130 0
108 -130 0
129 130 131 0
-129 -131 0
-130 -131 0
115 112 132 0
-115 -132 0
-112 -132 0
-131 -132 133 0
131 -133 0
132 -133 0
131 132 134 0
-131 -134 0
-132 -134 0
133 134 135 0
-133 -135 0
-134 -135 0
119 135 136 0
-119 -136 0
-135 -136 0
-116 -117 137 0
116 -137 0
117 -137 0
136 137 138 0
-136 -138 0
-137 -138 0
-104 138 139 0
104 -139 0
-138 -139 0
-102 -76 140 0
102 -140 0
76 -140 0
-118 101 141 0
118 -141 0
-101 -141 0
140 141 142 0
-140 -142 0
-141 -142 0
-135 -101 143 0
135 -143 0
101 -143 0
143 -137 144 0
-143 -144 0
137 -144 0
-142 144 145 0
142 -145 0
-144 -145 0
-139 -145 146 0
139 -146 0
145 -146 0
146 0
